\* Alternative_problem_has_solution *\
Maximize
OBJ: Y_A0_2 + Y_A4_1 + Y_A4_2
Subject To
_dummy: __dummy = 0
d_l_10: __dummy >= 0
d_l_14: Y_A0_2 >= 0
d_l_21: - Y_A0_2 >= 0
d_l_25: - Y_A4_1 >= 0
d_l_32: Y_A4_1 >= 0
d_l_36: - Y_A4_2 >= 0
d_l_43: Y_A4_1 + Y_A4_2 >= 0
d_l_47: __dummy >= 0
Bounds
 Y_A0_2 <= 10
 Y_A4_1 <= 10
 Y_A4_2 <= 10
End
